data/MCDM/NO_CORR/GEN_FROM_60/12_ITEMS_1000_GEN/K5012W05.KNP.mps
NAME          BLANK   
ROWS
 N  OBJROW
 L  R0000000
COLUMNS
    C0000000  OBJROW     -739.         R0000000  471.        
    C0000001  OBJROW     -534.         R0000000  363.        
    C0000002  OBJROW     -172.         R0000000  597.        
    C0000003  OBJROW     -940.         R0000000  415.        
    C0000004  OBJROW     -471.         R0000000  622.        
    C0000005  OBJROW     -38.          R0000000  803.        
    C0000006  OBJROW     -79.          R0000000  563.        
    C0000007  OBJROW     -263.         R0000000  985.        
    C0000008  OBJROW     -436.         R0000000  825.        
    C0000009  OBJROW     -485.         R0000000  777.        
    C0000010  OBJROW     -582.         R0000000  770.        
    C0000011  OBJROW     -259.         R0000000  375.        
RHS
    RHS       R0000000  16539.      
BOUNDS
 BV BOUND     C0000000  1.          
 BV BOUND     C0000001  1.          
 BV BOUND     C0000002  1.          
 BV BOUND     C0000003  1.          
 BV BOUND     C0000004  1.          
 BV BOUND     C0000005  1.          
 BV BOUND     C0000006  1.          
 BV BOUND     C0000007  1.          
 BV BOUND     C0000008  1.          
 BV BOUND     C0000009  1.          
 BV BOUND     C0000010  1.          
 BV BOUND     C0000011  1.          
ENDATA
