data/MCDM/NO_CORR/GEN_FROM_60/12_ITEMS_1000_GEN/K5012W05.KNP.txt
N 12
M 13
LC 12
LC 13
LC 14
LC 15
LC 16
LC 17
LC 18
LC 19
LC 20
LC 21
LC 22
LC 23
LR 1
LR 2
LR 3
LR 4
LR 5
LR 6
LR 7
LR 8
LR 9
LR 10
LR 11
LR 12
LR 13
LO -739
LO -534
LO -172
LO -940
LO -471
LO -38
LO -79
LO -263
LO -436
LO -485
LO -582
LO -259
OS 1
IC 102
IC 563
IC 229
IC 627
IC 519
IC 93
IC 223
IC 855
IC 644
IC 287
IC 403
IC 380
IB 2463
